[runlim] version:		2.0.0rc12
[runlim] host:			ap-Precision-7550
[runlim] time limit:		311040000 seconds
[runlim] real time limit:	600 seconds
[runlim] space limit:		14000 MB
[runlim] argv[0]:		python3
[runlim] argv[1]:		-u
[runlim] argv[2]:		mip_no.py
[runlim] argv[3]:		TUD200.3
[runlim] start:			Wed Mar 25 02:55:23 2026
[runlim] child:			68270
--- Building MIP model for 200 variables ---
--- Solving with CPLEX MIP ---
Version identifier: 22.1.1.0 | 2022-11-28 | 9160aff4d
CPXPARAM_Read_DataCheck                          1
CPXPARAM_MIP_Tolerances_MIPGap                   0
Legacy callback                                  i
Tried aggregator 1 time.
MIP Presolve eliminated 146269 rows and 98 columns.
MIP Presolve modified 23346 coefficients.
Reduced MIP has 24837 rows, 7190 columns, and 198632 nonzeros.
Reduced MIP has 7190 binaries, 0 generals, 0 SOSs, and 0 indicators.
Presolve time = 0.52 sec. (536.27 ticks)
Probing fixed 275 vars, tightened 0 bounds.
Probing changed sense of 3449 constraints.
Probing time = 0.04 sec. (12.97 ticks)
Tried aggregator 2 times.
MIP Presolve eliminated 10629 rows and 3698 columns.
MIP Presolve modified 12751 coefficients.
Aggregator did 20 substitutions.
Reduced MIP has 14161 rows, 3472 columns, and 187140 nonzeros.
Reduced MIP has 3472 binaries, 0 generals, 0 SOSs, and 0 indicators.
Presolve time = 0.58 sec. (766.87 ticks)
Probing fixed 2 vars, tightened 0 bounds.
Probing changed sense of 7 constraints.
Probing time = 0.02 sec. (5.11 ticks)
Tried aggregator 1 time.
Detecting symmetries...
MIP Presolve eliminated 21 rows and 7 columns.
MIP Presolve modified 224 coefficients.
Reduced MIP has 14123 rows, 3465 columns, and 186610 nonzeros.
Reduced MIP has 3465 binaries, 0 generals, 0 SOSs, and 0 indicators.
Presolve time = 0.17 sec. (225.15 ticks)
Probing fixed 2 vars, tightened 0 bounds.
Probing changed sense of 2 constraints.
Probing time = 0.02 sec. (5.48 ticks)
Clique table members: 17640.
MIP emphasis: balance optimality and feasibility.
MIP search method: dynamic search.
Parallel mode: deterministic, using up to 12 threads.
Root relaxation solution time = 1.38 sec. (1100.30 ticks)

        Nodes                                         Cuts/
   Node  Left     Objective  IInf  Best Integer    Best Bound    ItCnt     Gap

*     0+    0                           24.0000        0.0000           100.00%
      0     0       14.0000   782       24.0000       14.0000       21   41.67%

Num labels used: 24
Current incumbent solution: {16, 30, 72, 114, 156, 170, 240, 254, 268, 310, 352, 394, 408, 414, 428, 456, 478, 512, 554, 652, 666, 694, 750, 792}}
Time taken: 3.75s

Num labels used: 24
Current incumbent solution: {16, 30, 72, 114, 156, 170, 240, 254, 268, 310, 352, 394, 408, 414, 428, 456, 478, 512, 554, 652, 666, 694, 750, 792}}
Time taken: 3.75s
*     0+    0                           14.0000       14.0000             0.00%
      0     0        cutoff             14.0000       14.0000       21    0.00%
Elapsed time = 9.13 sec. (9631.09 ticks, tree = 0.01 MB, solutions = 2)

Root node processing (before b&c):
  Real time             =    9.13 sec. (9631.41 ticks)
Parallel b&c, 12 threads:
  Real time             =    0.00 sec. (0.00 ticks)
  Sync time (average)   =    0.00 sec.
  Wait time (average)   =    0.00 sec.
                          ------------
Total (root+branch&cut) =    9.13 sec. (9631.41 ticks)

==============================
FINAL INCUMBENT SOLUTION:
{442, 680, 498, 736, 100, 338, 498, 736, 736, 498, 240, 478, 30, 268, 442, 680, 380, 142, 30, 268, 338, 100, 680, 442, 338, 100, 736, 498, 498, 736, 778, 540, 142, 380, 142, 380, 30, 268, 778, 540, 100, 338, 142, 380, 380, 142, 540, 778, 380, 142, 778, 540, 778, 540, 380, 142, 498, 736, 268, 30, 268, 30, 736, 498, 736, 498, 680, 442, 268, 30, 338, 100, 30, 268, 442, 680, 380, 142, 30, 268, 498, 736, 736, 498, 680, 442, 30, 268, 442, 680, 680, 442, 540, 778, 338, 100, 240, 478, 478, 240, 442, 680, 736, 498, 540, 778, 338, 100, 442, 680, 778, 540, 540, 778, 680, 442, 778, 540, 680, 442, 380, 142, 778, 540, 338, 100, 778, 540, 778, 540, 380, 142, 142, 380, 100, 338, 268, 30, 778, 540, 268, 30, 778, 540, 30, 268, 100, 338, 142, 380, 736, 498, 778, 540, 736, 498, 142, 380, 100, 338, 680, 442, 268, 30, 380, 142, 680, 442, 680, 442, 268, 30, 498, 736, 380, 142, 680, 442, 240, 478, 680, 442, 100, 338, 142, 380, 30, 268, 268, 30, 100, 338, 268, 30, 778, 540, 100, 338, 380, 142}
Number of labels used: 14
Total time: 9.77s
Memory used: 228.36 MB
==============================
[runlim] end:			Wed Mar 25 02:55:33 2026
[runlim] status:		ok
[runlim] result:		0
[runlim] children:		1
[runlim] processes:		2
[runlim] real:			9.83 seconds
[runlim] time:			22.03 seconds
[runlim] space:			266 MB
[runlim] load:			1.92 maximum
[runlim] samples:		99
